100 500 10 200 10 100
22 48
66 73
84 88
81 129
75 72
15 130
75 196
45 97
78 166
95 65
17 25
16 183
25 78
43 133
65 142
11 27
36 62
38 79
99 64
61 84
90 30
83 195
99 95
50 162
96 149
36 183
46 118
45 97
26 193
14 179
11 120
38 180
90 108
64 156
92 56
24 111
60 65
100 136
78 40
87 75
46 180
93 142
54 43
23 149
33 80
68 14
86 144
79 15
79 42
27 36
73 191
14 198
38 85
44 70
69 74
97 94
97 182
13 184
43 86
37 95
97 80
17 190
17 104
20 88
98 156
56 67
69 94
18 45
81 19
29 84
36 40
17 148
85 48
35 103
90 85
47 124
21 130
30 192
19 107
68 13
31 36
39 31
36 147
13 110
53 184
19 61
28 175
64 58
53 175
83 180
14 160
81 36
90 37
98 134
58 140
14 41
41 29
86 107
98 162
91 144
